-2, -1, 5.31
-2, 0, 7.98
-2, 1, 3.66
-2, 2, 5.67
-2, 3, 4.28
-2, 4, 1.13
-1, 0, 1.05
-1, 1, 3.72
-1, 2, 8.59
-1, 3, 8.03
-1, 4, 8.36
0, 1, 7.19
0, 2, 9.12
0, 3, 3.38
0, 4, 2.21
1, 2, 2.67
1, 3, 8.78
1, 4, 7.18
2, 3, 8.31
2, 4, 6.73
3, 4, 8.68
